%chk=C:\Users\shiduyule\Desktop\P6O18-6.chk
# freq b3lyp/3-21g geom=connectivity

P6O18?-6?

-6 1
 P                 -3.58515077    4.24895692   -2.05048414
 O                 -2.61395971    4.92326167   -2.80021811
 O                 -4.71327662    2.80745228   -2.21422167
 P                 -3.88823847    2.08672930   -3.52722221
 O                 -2.73794344    1.35244967   -3.21472457
 O                 -5.15191391    1.23302242   -4.30079119
 P                 -6.83737113    0.99732515   -4.13411560
 O                 -7.28730716   -0.32829343   -4.15123094
 O                 -7.17275019    1.89892727   -2.72034954
 P                 -8.84171687    1.79848076   -2.36179591
 O                 -9.72238963    1.95482367   -3.43881605
 O                 -8.98884823    2.92746536   -1.08592518
 P                 -8.04259992    3.77712739    0.05722337
 O                 -8.56291395    4.99198747    0.51916310
 O                 -6.52776785    3.84723696   -0.73300980
 P                 -5.51014467    4.95461830    0.08077739
 O                 -6.03237827    6.23405100    0.30510760
 O                 -4.15279073    4.95198473   -0.69385715
 O                 -7.78041654    2.65504634    1.15280267
 O                 -5.09368069    4.11575611    1.37803141
 O                 -3.04935003    3.22730258   -0.94181828
 O                 -3.68029896    3.42005697   -4.57750716
 O                 -8.91840067    0.40878864   -1.57257134
 O                 -7.41225080    1.96104810   -5.27462050

 1 2 2.0 3 1.0 18 1.0 21 1.0
 2
 3 4 1.0
 4 5 2.0 6 1.0 22 1.0
 5
 6 7 1.0
 7 8 2.0 9 1.0 24 1.0
 8
 9 10 1.0
 10 11 2.0 12 1.0 23 1.0
 11
 12 13 1.0
 13 14 2.0 15 1.0 19 1.0
 14
 15 16 1.0
 16 17 2.0 18 1.0 20 1.0
 17
 18
 19
 20
 21
 22
 23
 24

